maximize cost: 207 e_2_2_3_1265_0_207 + 296 e_5_5_6_897_0_296 + 254 e_8_8_9_140_0_254 + 18 e_11_11_12_920_0_18
 + 41 e_14_14_15_140_1_41 + 221 e_17_17_18_935_0_221 + 105 e_20_20_21_103_0_105 + 98 e_23_23_24_120_4_98 + 101 e_24_24_25_111_4_101
 + 107 e_27_27_28_120_5_107 + 104 e_28_27_29_119_5_104 + 104 e_29_28_30_111_5_104 + 89 e_42_40_41_974_0_89 + 17 e_45_43_44_103_1_17
 + 104 e_48_46_47_120_2_104 + 101 e_49_47_48_111_2_101 + 107 e_52_50_51_120_3_107 + 105 e_53_50_52_119_3_105 + 104 e_54_51_53_111_3_104
 + 152 e_67_63_64_989_0_152 + 159 e_70_66_67_219_0_159 + 109 e_73_69_70_1020_0_109 + 14 e_76_72_73_103_2_14 + 106 e_79_75_76_120_0_106
 + 101 e_80_76_77_111_0_101 + 107 e_83_79_80_120_1_107 + 105 e_84_79_81_119_1_105 + 104 e_85_80_82_111_1_104 + 21 e_98_92_93_1037_0_21
 + 137 e_101_95_96_582_0_137 + 188 e_104_98_99_601_0_188 + 86 e_107_101_102_542_2_86 + 86 e_108_101_103_541_2_86 + 83 e_109_102_104_566_2_83
 + 83 e_110_103_105_556_2_83 + 2 e_114_107_108_616_0_2 + 2 e_115_107_109_615_0_2 + 69 e_116_108_110_635_0_69 + 69 e_117_108_111_634_0_69
 + 73 e_118_109_112_624_0_73 + 13 e_124_115_117_601_1_13 + 5 e_125_116_118_644_0_5 + 4 e_130_121_123_542_3_4 + 4 e_131_121_124_541_3_4
 + 128 e_132_122_125_49_0_128 + 8 e_133_123_126_566_3_8 + 8 e_134_124_127_556_3_8 + 97 e_140_130_132_77_0_97 + 97 e_141_130_133_76_0_97
 + 2 e_142_131_134_616_1_2 + 2 e_143_131_135_615_1_2 + 4 e_148_134_139_634_1_4 + 8 e_149_135_140_624_1_8 + 134 e_151_136_141_68_0_134
 + 3 e_156_142_146_62_0_3 + 3 e_157_143_147_93_0_3 + 143 e_163_149_151_77_1_143 + 143 e_164_149_152_76_1_143 + 89 e_171_153_158_655_0_89
 + 89 e_172_153_159_654_0_89 + 146 e_173_154_160_68_1_146 + 203 e_178_158_163_675_0_203 + 87 e_179_159_164_663_0_87 + 82 e_185_167_168_1053_0_82
 + 143 e_188_170_171_1093_0_143 + 143 e_189_170_172_1092_0_143 + 5 e_190_171_173_1066_0_5 + 89 e_195_176_178_1114_0_89 + 158 e_196_177_179_368_0_158
 + 193 e_201_182_184_458_0_193 + 34 e_202_183_185_1076_0_34 + 87 e_207_188_190_497_0_87 + 22 e_208_189_191_1092_1_22 + 18 e_209_190_192_488_0_18
 + 1 e_215_196_197_497_1_1 + 1 e_216_196_198_496_1_1 + 17 e_217_197_199_488_1_17 + 295 e_227_206_207_505_0_295 + 103 e_230_209_210_1137_0_103
 + 274 e_233_212_213_733_0_274 + 84 e_236_215_216_691_0_84 + 1 e_239_218_219_710_2_1 + 131 e_240_219_220_699_2_131 + 1 e_243_222_223_710_3_1
 + 1 e_244_222_224_709_3_1 + 155 e_245_223_225_699_3_155 + 170 e_255_232_233_714_0_170 + 352 e_258_235_236_762_0_352 + 166 e_261_238_239_391_0_166
 + 166 e_262_238_240_390_0_166 + 202 e_263_239_241_417_0_202 + 205 e_264_240_242_403_0_205 + 169 e_266_241_243_434_0_169 + 249 e_269_245_246_368_3_249
 + 154 e_274_250_251_785_0_154 + 154 e_275_250_252_784_0_154 + 86 e_276_251_253_860_0_86 + 88 e_277_252_254_804_0_88 + 3 e_282_257_259_691_1_3
 + 148 e_283_258_260_242_2_148 + 129 e_284_258_261_241_2_129 + 204 e_286_260_263_326_2_204 + 204 e_287_260_264_325_2_204 + 103 e_288_261_265_250_2_103
 + 93 e_291_264_268_344_2_93 + 93 e_292_264_269_345_2_93 + 93 e_293_264_270_346_2_93 + 93 e_294_264_271_347_2_93 + 93 e_295_264_272_348_2_93
 + 150 e_297_265_273_289_2_150 + 1 e_298_266_274_710_0_1 + 12 e_300_268_276_254_2_12 + 111 e_301_269_277_263_2_111 + 111 e_302_269_278_262_2_111
 + 156 e_304_271_279_303_2_156 + 12 e_306_272_280_311_2_12 + 168 e_308_273_281_319_2_168 + 141 e_310_274_282_699_0_141 + 312 e_311_275_283_821_0_312
 + 81 e_312_276_284_277_2_81 + 4 e_314_277_285_283_2_4 + 1 e_320_288_290_710_1_1 + 1 e_321_288_291_709_1_1 + 117 e_322_289_292_368_2_117
 + 168 e_323_290_293_699_1_168 + 160 e_336_302_304_870_0_160 + 157 e_337_303_305_714_1_157 + 131 e_346_312_313_1205_0_131 + 21 e_347_313_314_1158_0_21
 + 4 e_350_316_317_541_0_4 + 8 e_351_317_318_556_0_8 + 68 e_354_320_321_1169_0_68 + 68 e_355_320_322_1168_0_68 + 18 e_356_321_323_1190_0_18
 + 4 e_357_322_324_1182_0_4 + 16 e_362_327_329_1205_1_16 + 16 e_363_327_330_1204_1_16 + 123 e_364_328_331_242_0_123 + 16 e_365_329_332_1158_1_16
 + 156 e_368_331_335_325_0_156 + 93 e_373_335_339_344_0_93 + 12 e_376_339_342_254_0_12 + 4 e_377_340_343_542_1_4 + 4 e_378_340_344_541_1_4
 + 81 e_380_342_346_277_0_81 + 8 e_381_343_347_566_1_8 + 8 e_382_344_348_556_1_8 + 21 e_384_345_349_1222_0_21 + 19 e_385_346_350_319_0_19
 + 1 e_393_354_357_1169_1_1 + 1 e_394_354_358_1168_1_1 + 82 e_395_355_359_173_0_82 + 82 e_396_355_360_172_0_82 + 18 e_397_357_361_1190_1_18
 + 4 e_398_358_362_1182_1_4 + 48 e_399_359_363_205_0_48 + 89 e_400_360_364_189_0_89 + 123 e_408_368_370_242_1_123 + 202 e_409_369_371_1238_0_202
 + 156 e_410_370_372_325_1_156 + 93 e_412_372_374_344_1_93 + 12 e_414_374_376_254_1_12 + 136 e_415_375_377_1291_0_136 + 81 e_417_376_378_277_1_81
 + 19 e_418_378_379_319_1_19
subject to
e_0_0_0_0_0_0 = 0
e_1_1_2_1261_0_0 = 1
e_416_377_18446744073709551615_0_0_0 = 1
e_1_1_2_1261_0_0 - e_2_2_3_1265_0_207 = 0
e_2_2_3_1265_0_207 - e_3_3_4_1266_0_0 = 0
e_3_3_4_1266_0_0 - e_4_4_5_893_0_0 = 0
e_4_4_5_893_0_0 - e_5_5_6_897_0_296 = 0
e_5_5_6_897_0_296 - e_6_6_7_898_0_0 = 0
e_6_6_7_898_0_0 - e_7_7_8_139_0_0 = 0
e_7_7_8_139_0_0 - e_8_8_9_140_0_254 = 0
e_8_8_9_140_0_254 - e_9_9_10_1415_0_0 = 0
e_9_9_10_1415_0_0 - e_10_10_11_899_0_0 = 0
e_10_10_11_899_0_0 - e_11_11_12_920_0_18 = 0
e_11_11_12_920_0_18 - e_12_12_13_921_0_0 = 0
e_12_12_13_921_0_0 - e_13_13_14_139_1_0 = 0
e_13_13_14_139_1_0 - e_14_14_15_140_1_41 = 0
e_14_14_15_140_1_41 - e_15_15_16_1416_0_0 = 0
e_15_15_16_1416_0_0 - e_16_16_17_922_0_0 = 0
e_16_16_17_922_0_0 - e_17_17_18_935_0_221 = 0
e_17_17_18_935_0_221 - e_18_18_19_936_0_0 = 0
e_18_18_19_936_0_0 - e_19_19_20_102_0_0 = 0
e_19_19_20_102_0_0 - e_20_20_21_103_0_105 = 0
e_20_20_21_103_0_105 - e_21_21_22_1331_0_0 = 0
e_21_21_22_1331_0_0 - e_22_22_23_1327_4_0 = 0
e_22_22_23_1327_4_0 - e_23_23_24_120_4_98 = 0
e_23_23_24_120_4_98 - e_24_24_25_111_4_101 = 0
e_24_24_25_111_4_101 - e_25_25_26_1326_4_0 = 0
e_25_25_26_1326_4_0 + e_33_33_26_0_0_0 - e_26_26_27_1327_5_0 = 0
e_26_26_27_1327_5_0 - e_27_27_28_120_5_107 - e_28_27_29_119_5_104 = 0
e_27_27_28_120_5_107 - e_29_28_30_111_5_104 = 0
e_28_27_29_119_5_104 + e_36_35_29_0_0_0 - e_30_29_31_1429_4_0 - e_31_29_32_1429_5_0 = 0
e_29_28_30_111_5_104 - e_32_30_33_1326_5_0 = 0
e_30_29_31_1429_4_0 - e_34_31_34_1325_4_0 = 0
e_31_29_32_1429_5_0 - e_35_32_35_1325_5_0 = 0
e_32_30_33_1326_5_0 - e_33_33_26_0_0_0 = 0
e_34_31_34_1325_4_0 - e_37_34_36_1404_0_0 = 0
e_35_32_35_1325_5_0 - e_36_35_29_0_0_0 = 0
e_37_34_36_1404_0_0 - e_38_36_37_1332_0_0 = 0
e_38_36_37_1332_0_0 - e_39_37_38_132_0_0 = 0
e_39_37_38_132_0_0 - e_40_38_39_1417_0_0 = 0
e_40_38_39_1417_0_0 - e_41_39_40_937_0_0 = 0
e_41_39_40_937_0_0 - e_42_40_41_974_0_89 = 0
e_42_40_41_974_0_89 - e_43_41_42_975_0_0 = 0
e_43_41_42_975_0_0 - e_44_42_43_102_1_0 = 0
e_44_42_43_102_1_0 - e_45_43_44_103_1_17 = 0
e_45_43_44_103_1_17 - e_46_44_45_1331_1_0 = 0
e_46_44_45_1331_1_0 - e_47_45_46_1327_2_0 = 0
e_47_45_46_1327_2_0 - e_48_46_47_120_2_104 = 0
e_48_46_47_120_2_104 - e_49_47_48_111_2_101 = 0
e_49_47_48_111_2_101 - e_50_48_49_1326_2_0 = 0
e_50_48_49_1326_2_0 + e_58_56_49_0_0_0 - e_51_49_50_1327_3_0 = 0
e_51_49_50_1327_3_0 - e_52_50_51_120_3_107 - e_53_50_52_119_3_105 = 0
e_52_50_51_120_3_107 - e_54_51_53_111_3_104 = 0
e_53_50_52_119_3_105 + e_61_58_52_0_0_0 - e_55_52_54_1429_2_0 - e_56_52_55_1429_3_0 = 0
e_54_51_53_111_3_104 - e_57_53_56_1326_3_0 = 0
e_55_52_54_1429_2_0 - e_59_54_57_1325_2_0 = 0
e_56_52_55_1429_3_0 - e_60_55_58_1325_3_0 = 0
e_57_53_56_1326_3_0 - e_58_56_49_0_0_0 = 0
e_59_54_57_1325_2_0 - e_62_57_59_1404_1_0 = 0
e_60_55_58_1325_3_0 - e_61_58_52_0_0_0 = 0
e_62_57_59_1404_1_0 - e_63_59_60_1332_1_0 = 0
e_63_59_60_1332_1_0 - e_64_60_61_132_1_0 = 0
e_64_60_61_132_1_0 - e_65_61_62_1418_0_0 = 0
e_65_61_62_1418_0_0 - e_66_62_63_976_0_0 = 0
e_66_62_63_976_0_0 - e_67_63_64_989_0_152 = 0
e_67_63_64_989_0_152 - e_68_64_65_990_0_0 = 0
e_68_64_65_990_0_0 - e_69_65_66_218_0_0 = 0
e_69_65_66_218_0_0 - e_70_66_67_219_0_159 = 0
e_70_66_67_219_0_159 - e_71_67_68_1419_0_0 = 0
e_71_67_68_1419_0_0 - e_72_68_69_991_0_0 = 0
e_72_68_69_991_0_0 - e_73_69_70_1020_0_109 = 0
e_73_69_70_1020_0_109 - e_74_70_71_1021_0_0 = 0
e_74_70_71_1021_0_0 - e_75_71_72_102_2_0 = 0
e_75_71_72_102_2_0 - e_76_72_73_103_2_14 = 0
e_76_72_73_103_2_14 - e_77_73_74_1331_2_0 = 0
e_77_73_74_1331_2_0 - e_78_74_75_1327_0_0 = 0
e_78_74_75_1327_0_0 - e_79_75_76_120_0_106 = 0
e_79_75_76_120_0_106 - e_80_76_77_111_0_101 = 0
e_80_76_77_111_0_101 - e_81_77_78_1326_0_0 = 0
e_81_77_78_1326_0_0 + e_89_85_78_0_0_0 - e_82_78_79_1327_1_0 = 0
e_82_78_79_1327_1_0 - e_83_79_80_120_1_107 - e_84_79_81_119_1_105 = 0
e_83_79_80_120_1_107 - e_85_80_82_111_1_104 = 0
e_84_79_81_119_1_105 + e_92_87_81_0_0_0 - e_86_81_83_1429_0_0 - e_87_81_84_1429_1_0 = 0
e_85_80_82_111_1_104 - e_88_82_85_1326_1_0 = 0
e_86_81_83_1429_0_0 - e_90_83_86_1325_0_0 = 0
e_87_81_84_1429_1_0 - e_91_84_87_1325_1_0 = 0
e_88_82_85_1326_1_0 - e_89_85_78_0_0_0 = 0
e_90_83_86_1325_0_0 - e_93_86_88_1404_2_0 = 0
e_91_84_87_1325_1_0 - e_92_87_81_0_0_0 = 0
e_93_86_88_1404_2_0 - e_94_88_89_1332_2_0 = 0
e_94_88_89_1332_2_0 - e_95_89_90_132_2_0 = 0
e_95_89_90_132_2_0 - e_96_90_91_1420_0_0 = 0
e_96_90_91_1420_0_0 - e_97_91_92_1022_0_0 = 0
e_97_91_92_1022_0_0 - e_98_92_93_1037_0_21 = 0
e_98_92_93_1037_0_21 - e_99_93_94_1038_0_0 = 0
e_99_93_94_1038_0_0 - e_100_94_95_581_0_0 = 0
e_100_94_95_581_0_0 - e_101_95_96_582_0_137 = 0
e_101_95_96_582_0_137 - e_102_96_97_1359_0_0 = 0
e_102_96_97_1359_0_0 - e_103_97_98_1355_0_0 = 0
e_103_97_98_1355_0_0 - e_104_98_99_601_0_188 = 0
e_104_98_99_601_0_188 - e_105_99_100_602_0_0 = 0
e_105_99_100_602_0_0 - e_106_100_101_540_2_0 = 0
e_106_100_101_540_2_0 - e_107_101_102_542_2_86 - e_108_101_103_541_2_86 = 0
e_107_101_102_542_2_86 - e_109_102_104_566_2_83 = 0
e_108_101_103_541_2_86 - e_110_103_105_556_2_83 = 0
e_109_102_104_566_2_83 + e_111_105_104_0_0_0 - e_112_104_106_1431_0_0 = 0
e_110_103_105_556_2_83 - e_111_105_104_0_0_0 = 0
e_112_104_106_1431_0_0 - e_113_106_107_603_0_0 = 0
e_113_106_107_603_0_0 - e_114_107_108_616_0_2 - e_115_107_109_615_0_2 = 0
e_114_107_108_616_0_2 + e_119_112_108_0_0_0 - e_116_108_110_635_0_69 - e_117_108_111_634_0_69 = 0
e_115_107_109_615_0_2 - e_118_109_112_624_0_73 = 0
e_116_108_110_635_0_69 - e_120_110_113_1354_0_0 = 0
e_117_108_111_634_0_69 + e_160_148_111_0_0_0 - e_121_111_114_1408_0_0 = 0
e_118_109_112_624_0_73 - e_119_112_108_0_0_0 = 0
e_120_110_113_1354_0_0 - e_122_113_115_1355_1_0 = 0
e_121_111_114_1408_0_0 - e_123_114_116_1360_0_0 = 0
e_122_113_115_1355_1_0 - e_124_115_117_601_1_13 = 0
e_123_114_116_1360_0_0 - e_125_116_118_644_0_5 = 0
e_124_115_117_601_1_13 - e_126_117_119_602_1_0 = 0
e_125_116_118_644_0_5 - e_127_118_120_645_0_0 = 0
e_126_117_119_602_1_0 - e_128_119_121_540_3_0 = 0
e_127_118_120_645_0_0 - e_129_120_122_48_0_0 = 0
e_128_119_121_540_3_0 - e_130_121_123_542_3_4 - e_131_121_124_541_3_4 = 0
e_129_120_122_48_0_0 - e_132_122_125_49_0_128 = 0
e_130_121_123_542_3_4 - e_133_123_126_566_3_8 = 0
e_131_121_124_541_3_4 - e_134_124_127_556_3_8 = 0
e_132_122_125_49_0_128 - e_136_125_128_1316_0_0 = 0
e_133_123_126_566_3_8 + e_135_127_126_0_0_0 - e_137_126_129_1431_1_0 = 0
e_134_124_127_556_3_8 - e_135_127_126_0_0_0 = 0
e_136_125_128_1316_0_0 - e_138_128_130_1312_0_0 = 0
e_137_126_129_1431_1_0 - e_139_129_131_603_1_0 = 0
e_138_128_130_1312_0_0 - e_140_130_132_77_0_97 - e_141_130_133_76_0_97 = 0
e_139_129_131_603_1_0 - e_142_131_134_616_1_2 - e_143_131_135_615_1_2 = 0
e_140_130_132_77_0_97 - e_144_132_136_58_0_0 - e_145_132_137_57_0_0 = 0
e_141_130_133_76_0_97 + e_146_137_133_0_0_0 + e_175_161_133_0_0_0 - e_147_133_138_1403_0_0 = 0
e_142_131_134_616_1_2 + e_150_140_134_0_0_0 - e_148_134_139_634_1_4 = 0
e_143_131_135_615_1_2 - e_149_135_140_624_1_8 = 0
e_144_132_136_58_0_0 - e_151_136_141_68_0_134 = 0
e_145_132_137_57_0_0 - e_146_137_133_0_0_0 = 0
e_147_133_138_1403_0_0 - e_152_138_142_1318_0_0 - e_153_138_143_1317_0_0 = 0
e_148_134_139_634_1_4 - e_154_139_144_1432_0_0 = 0
e_149_135_140_624_1_8 - e_150_140_134_0_0_0 = 0
e_151_136_141_68_0_134 - e_155_141_145_1311_0_0 = 0
e_152_138_142_1318_0_0 - e_156_142_146_62_0_3 = 0
e_153_138_143_1317_0_0 - e_157_143_147_93_0_3 = 0
e_154_139_144_1432_0_0 - e_159_144_148_1353_0_0 = 0
e_155_141_145_1311_0_0 + e_182_165_145_0_0_0 - e_161_145_149_1312_1_0 = 0
e_156_142_146_62_0_3 + e_158_147_146_0_0_0 - e_162_146_150_1407_0_0 = 0
e_157_143_147_93_0_3 - e_158_147_146_0_0_0 = 0
e_159_144_148_1353_0_0 - e_160_148_111_0_0_0 = 0
e_161_145_149_1312_1_0 - e_163_149_151_77_1_143 - e_164_149_152_76_1_143 = 0
e_162_146_150_1407_0_0 - e_165_150_153_646_0_0 = 0
e_163_149_151_77_1_143 - e_166_151_154_58_1_0 - e_167_151_155_57_1_0 = 0
e_164_149_152_76_1_143 + e_168_155_152_0_0_0 + e_177_162_152_0_0_0 - e_169_152_156_1428_0_0 - e_170_152_157_1428_1_0 = 0
e_165_150_153_646_0_0 - e_171_153_158_655_0_89 - e_172_153_159_654_0_89 = 0
e_166_151_154_58_1_0 - e_173_154_160_68_1_146 = 0
e_167_151_155_57_1_0 - e_168_155_152_0_0_0 = 0
e_169_152_156_1428_0_0 - e_174_156_161_1310_0_0 = 0
e_170_152_157_1428_1_0 - e_176_157_162_1310_1_0 = 0
e_171_153_158_655_0_89 + e_180_164_158_0_0_0 - e_178_158_163_675_0_203 = 0
e_172_153_159_654_0_89 - e_179_159_164_663_0_87 = 0
e_173_154_160_68_1_146 - e_181_160_165_1311_1_0 = 0
e_174_156_161_1310_0_0 - e_175_161_133_0_0_0 = 0
e_176_157_162_1310_1_0 - e_177_162_152_0_0_0 = 0
e_178_158_163_675_0_203 - e_183_163_166_1421_0_0 = 0
e_179_159_164_663_0_87 - e_180_164_158_0_0_0 = 0
e_181_160_165_1311_1_0 - e_182_165_145_0_0_0 = 0
e_183_163_166_1421_0_0 - e_184_166_167_1039_0_0 = 0
e_184_166_167_1039_0_0 - e_185_167_168_1053_0_82 = 0
e_185_167_168_1053_0_82 - e_186_168_169_1387_0_0 = 0
e_186_168_169_1387_0_0 - e_187_169_170_1383_0_0 = 0
e_187_169_170_1383_0_0 - e_188_170_171_1093_0_143 - e_189_170_172_1092_0_143 = 0
e_188_170_171_1093_0_143 - e_190_171_173_1066_0_5 = 0
e_189_170_172_1092_0_143 + e_213_195_172_0_0_0 - e_191_172_174_1425_0_0 = 0
e_190_171_173_1066_0_5 - e_192_173_175_1067_0_0 = 0
e_191_172_174_1425_0_0 - e_193_174_176_1388_0_0 = 0
e_192_173_175_1067_0_0 - e_194_175_177_367_0_0 = 0
e_193_174_176_1388_0_0 - e_195_176_178_1114_0_89 = 0
e_194_175_177_367_0_0 - e_196_177_179_368_0_158 = 0
e_195_176_178_1114_0_89 - e_197_178_180_1115_0_0 = 0
e_196_177_179_368_0_158 - e_198_179_181_1434_0_0 = 0
e_197_178_180_1115_0_0 - e_199_180_182_457_0_0 = 0
e_198_179_181_1434_0_0 - e_200_181_183_1068_0_0 = 0
e_199_180_182_457_0_0 - e_201_182_184_458_0_193 = 0
e_200_181_183_1068_0_0 - e_202_183_185_1076_0_34 = 0
e_201_182_184_458_0_193 - e_203_184_186_1345_0_0 = 0
e_202_183_185_1076_0_34 - e_204_185_187_1382_0_0 = 0
e_203_184_186_1345_0_0 - e_205_186_188_1341_0_0 = 0
e_204_185_187_1382_0_0 - e_206_187_189_1383_1_0 = 0
e_205_186_188_1341_0_0 - e_207_188_190_497_0_87 = 0
e_206_187_189_1383_1_0 - e_208_189_191_1092_1_22 = 0
e_207_188_190_497_0_87 - e_209_190_192_488_0_18 = 0
e_208_189_191_1092_1_22 - e_210_191_193_1435_0_0 = 0
e_209_190_192_488_0_18 - e_211_192_194_1340_0_0 = 0
e_210_191_193_1435_0_0 - e_212_193_195_1381_0_0 = 0
e_211_192_194_1340_0_0 + e_221_202_194_0_0_0 - e_214_194_196_1341_1_0 = 0
e_212_193_195_1381_0_0 - e_213_195_172_0_0_0 = 0
e_214_194_196_1341_1_0 - e_215_196_197_497_1_1 - e_216_196_198_496_1_1 = 0
e_215_196_197_497_1_1 - e_217_197_199_488_1_17 = 0
e_216_196_198_496_1_1 + e_224_204_198_0_0_0 - e_218_198_200_1430_0_0 - e_219_198_201_1430_1_0 = 0
e_217_197_199_488_1_17 - e_220_199_202_1340_1_0 = 0
e_218_198_200_1430_0_0 - e_222_200_203_1339_0_0 = 0
e_219_198_201_1430_1_0 - e_223_201_204_1339_1_0 = 0
e_220_199_202_1340_1_0 - e_221_202_194_0_0_0 = 0
e_222_200_203_1339_0_0 - e_225_203_205_1406_0_0 = 0
e_223_201_204_1339_1_0 - e_224_204_198_0_0_0 = 0
e_225_203_205_1406_0_0 - e_226_205_206_1346_0_0 = 0
e_226_205_206_1346_0_0 - e_227_206_207_505_0_295 = 0
e_227_206_207_505_0_295 - e_228_207_208_1422_0_0 = 0
e_228_207_208_1422_0_0 - e_229_208_209_1116_0_0 = 0
e_229_208_209_1116_0_0 - e_230_209_210_1137_0_103 = 0
e_230_209_210_1137_0_103 - e_231_210_211_1138_0_0 = 0
e_231_210_211_1138_0_0 - e_232_211_212_729_0_0 = 0
e_232_211_212_729_0_0 - e_233_212_213_733_0_274 = 0
e_233_212_213_733_0_274 - e_234_213_214_734_0_0 = 0
e_234_213_214_734_0_0 - e_235_214_215_690_0_0 = 0
e_235_214_215_690_0_0 - e_236_215_216_691_0_84 = 0
e_236_215_216_691_0_84 - e_237_216_217_1373_0_0 = 0
e_237_216_217_1373_0_0 - e_238_217_218_1369_2_0 = 0
e_238_217_218_1369_2_0 - e_239_218_219_710_2_1 = 0
e_239_218_219_710_2_1 - e_240_219_220_699_2_131 = 0
e_240_219_220_699_2_131 - e_241_220_221_1368_2_0 = 0
e_241_220_221_1368_2_0 + e_249_228_221_0_0_0 - e_242_221_222_1369_3_0 = 0
e_242_221_222_1369_3_0 - e_243_222_223_710_3_1 - e_244_222_224_709_3_1 = 0
e_243_222_223_710_3_1 - e_245_223_225_699_3_155 = 0
e_244_222_224_709_3_1 + e_252_230_224_0_0_0 - e_246_224_226_1433_2_0 - e_247_224_227_1433_3_0 = 0
e_245_223_225_699_3_155 - e_248_225_228_1368_3_0 = 0
e_246_224_226_1433_2_0 - e_250_226_229_1367_2_0 = 0
e_247_224_227_1433_3_0 - e_251_227_230_1367_3_0 = 0
e_248_225_228_1368_3_0 - e_249_228_221_0_0_0 = 0
e_250_226_229_1367_2_0 - e_253_229_231_1409_0_0 = 0
e_251_227_230_1367_3_0 - e_252_230_224_0_0_0 = 0
e_253_229_231_1409_0_0 - e_254_231_232_1374_0_0 = 0
e_254_231_232_1374_0_0 - e_255_232_233_714_0_170 = 0
e_255_232_233_714_0_170 - e_256_233_234_1410_0_0 = 0
e_256_233_234_1410_0_0 - e_257_234_235_735_0_0 = 0
e_257_234_235_735_0_0 - e_258_235_236_762_0_352 = 0
e_258_235_236_762_0_352 - e_259_236_237_763_0_0 = 0
e_259_236_237_763_0_0 - e_260_237_238_389_0_0 = 0
e_260_237_238_389_0_0 - e_261_238_239_391_0_166 - e_262_238_240_390_0_166 = 0
e_261_238_239_391_0_166 - e_263_239_241_417_0_202 = 0
e_262_238_240_390_0_166 - e_264_240_242_403_0_205 = 0
e_263_239_241_417_0_202 + e_265_242_241_0_0_0 - e_266_241_243_434_0_169 = 0
e_264_240_242_403_0_205 - e_265_242_241_0_0_0 = 0
e_266_241_243_434_0_169 - e_267_243_244_435_0_0 = 0
e_267_243_244_435_0_0 - e_268_244_245_367_3_0 = 0
e_268_244_245_367_3_0 - e_269_245_246_368_3_249 = 0
e_269_245_246_368_3_249 - e_270_246_247_1405_0_0 = 0
e_270_246_247_1405_0_0 - e_271_247_248_436_0_0 = 0
e_271_247_248_436_0_0 - e_272_248_249_1411_0_0 = 0
e_272_248_249_1411_0_0 - e_273_249_250_764_0_0 = 0
e_273_249_250_764_0_0 - e_274_250_251_785_0_154 - e_275_250_252_784_0_154 = 0
e_274_250_251_785_0_154 - e_276_251_253_860_0_86 = 0
e_275_250_252_784_0_154 - e_277_252_254_804_0_88 = 0
e_276_251_253_860_0_86 - e_278_253_255_861_0_0 = 0
e_277_252_254_804_0_88 - e_279_254_256_805_0_0 = 0
e_278_253_255_861_0_0 - e_280_255_257_690_1_0 = 0
e_279_254_256_805_0_0 - e_281_256_258_240_2_0 = 0
e_280_255_257_690_1_0 - e_282_257_259_691_1_3 = 0
e_281_256_258_240_2_0 - e_283_258_260_242_2_148 - e_284_258_261_241_2_129 = 0
e_282_257_259_691_1_3 - e_285_259_262_1373_1_0 = 0
e_283_258_260_242_2_148 - e_286_260_263_326_2_204 - e_287_260_264_325_2_204 = 0
e_284_258_261_241_2_129 - e_288_261_265_250_2_103 = 0
e_285_259_262_1373_1_0 - e_289_262_266_1369_0_0 = 0
e_286_260_263_326_2_204 + e_305_279_263_0_0_0 + e_309_281_263_0_0_0 - e_290_263_267_1412_0_0 = 0
e_287_260_264_325_2_204 - e_291_264_268_344_2_93 - e_292_264_269_345_2_93 - e_293_264_270_346_2_93 - e_294_264_271_347_2_93 - e_295_264_272_348_2_93 = 0
e_288_261_265_250_2_103 + e_296_270_265_0_0_0 - e_297_265_273_289_2_150 = 0
e_289_262_266_1369_0_0 - e_298_266_274_710_0_1 = 0
e_290_263_267_1412_0_0 - e_299_267_275_806_0_0 = 0
e_291_264_268_344_2_93 - e_300_268_276_254_2_12 = 0
e_292_264_269_345_2_93 - e_301_269_277_263_2_111 - e_302_269_278_262_2_111 = 0
e_293_264_270_346_2_93 - e_296_270_265_0_0_0 = 0
e_294_264_271_347_2_93 - e_304_271_279_303_2_156 = 0
e_295_264_272_348_2_93 - e_306_272_280_311_2_12 = 0
e_297_265_273_289_2_150 + e_307_280_273_0_0_0 + e_313_284_273_0_0_0 + e_315_285_273_0_0_0 - e_308_273_281_319_2_168 = 0
e_298_266_274_710_0_1 - e_310_274_282_699_0_141 = 0
e_299_267_275_806_0_0 - e_311_275_283_821_0_312 = 0
e_300_268_276_254_2_12 + e_303_278_276_0_0_0 - e_312_276_284_277_2_81 = 0
e_301_269_277_263_2_111 - e_314_277_285_283_2_4 = 0
e_302_269_278_262_2_111 - e_303_278_276_0_0_0 = 0
e_304_271_279_303_2_156 - e_305_279_263_0_0_0 = 0
e_306_272_280_311_2_12 - e_307_280_273_0_0_0 = 0
e_308_273_281_319_2_168 - e_309_281_263_0_0_0 = 0
e_310_274_282_699_0_141 - e_316_282_286_1368_0_0 = 0
e_311_275_283_821_0_312 - e_317_283_287_822_0_0 = 0
e_312_276_284_277_2_81 - e_313_284_273_0_0_0 = 0
e_314_277_285_283_2_4 - e_315_285_273_0_0_0 = 0
e_316_282_286_1368_0_0 + e_328_297_286_0_0_0 - e_318_286_288_1369_1_0 = 0
e_317_283_287_822_0_0 - e_319_287_289_367_2_0 = 0
e_318_286_288_1369_1_0 - e_320_288_290_710_1_1 - e_321_288_291_709_1_1 = 0
e_319_287_289_367_2_0 - e_322_289_292_368_2_117 = 0
e_320_288_290_710_1_1 - e_323_290_293_699_1_168 = 0
e_321_288_291_709_1_1 + e_331_299_291_0_0_0 - e_324_291_294_1433_0_0 - e_325_291_295_1433_1_0 = 0
e_322_289_292_368_2_117 - e_326_292_296_1413_0_0 = 0
e_323_290_293_699_1_168 - e_327_293_297_1368_1_0 = 0
e_324_291_294_1433_0_0 - e_329_294_298_1367_0_0 = 0
e_325_291_295_1433_1_0 - e_330_295_299_1367_1_0 = 0
e_326_292_296_1413_0_0 - e_332_296_300_823_0_0 = 0
e_327_293_297_1368_1_0 - e_328_297_286_0_0_0 = 0
e_329_294_298_1367_0_0 - e_333_298_301_1409_1_0 = 0
e_330_295_299_1367_1_0 - e_331_299_291_0_0_0 = 0
e_332_296_300_823_0_0 - e_334_300_302_853_0_0 = 0
e_333_298_301_1409_1_0 - e_335_301_303_1374_1_0 = 0
e_334_300_302_853_0_0 + e_342_309_302_0_0_0 - e_336_302_304_870_0_160 = 0
e_335_301_303_1374_1_0 - e_337_303_305_714_1_157 = 0
e_336_302_304_870_0_160 - e_338_304_306_1423_0_0 = 0
e_337_303_305_714_1_157 - e_339_305_307_1414_0_0 = 0
e_338_304_306_1423_0_0 - e_340_306_308_1139_0_0 = 0
e_339_305_307_1414_0_0 - e_341_307_309_862_0_0 = 0
e_340_306_308_1139_0_0 - e_343_308_310_1151_0_0 = 0
e_341_307_309_862_0_0 - e_342_309_302_0_0_0 = 0
e_343_308_310_1151_0_0 - e_344_310_311_1401_0_0 = 0
e_344_310_311_1401_0_0 - e_345_311_312_1397_0_0 = 0
e_345_311_312_1397_0_0 - e_346_312_313_1205_0_131 = 0
e_346_312_313_1205_0_131 - e_347_313_314_1158_0_21 = 0
e_347_313_314_1158_0_21 - e_348_314_315_1159_0_0 = 0
e_348_314_315_1159_0_0 - e_349_315_316_540_0_0 = 0
e_349_315_316_540_0_0 - e_350_316_317_541_0_4 = 0
e_350_316_317_541_0_4 - e_351_317_318_556_0_8 = 0
e_351_317_318_556_0_8 - e_352_318_319_1436_0_0 = 0
e_352_318_319_1436_0_0 - e_353_319_320_1160_0_0 = 0
e_353_319_320_1160_0_0 - e_354_320_321_1169_0_68 - e_355_320_322_1168_0_68 = 0
e_354_320_321_1169_0_68 + e_392_356_321_0_0_0 - e_356_321_323_1190_0_18 = 0
e_355_320_322_1168_0_68 - e_357_322_324_1182_0_4 = 0
e_356_321_323_1190_0_18 - e_358_323_325_1396_0_0 = 0
e_357_322_324_1182_0_4 - e_359_324_326_1183_0_0 = 0
e_358_323_325_1396_0_0 + e_403_365_325_0_0_0 - e_360_325_327_1397_1_0 = 0
e_359_324_326_1183_0_0 - e_361_326_328_240_0_0 = 0
e_360_325_327_1397_1_0 - e_362_327_329_1205_1_16 - e_363_327_330_1204_1_16 = 0
e_361_326_328_240_0_0 - e_364_328_331_242_0_123 = 0
e_362_327_329_1205_1_16 - e_365_329_332_1158_1_16 = 0
e_363_327_330_1204_1_16 + e_372_338_330_0_0_0 - e_366_330_333_1438_0_0 - e_367_330_334_1438_1_0 = 0
e_364_328_331_242_0_123 - e_368_331_335_325_0_156 = 0
e_365_329_332_1158_1_16 - e_369_332_336_1159_1_0 = 0
e_366_330_333_1438_0_0 - e_370_333_337_1395_0_0 = 0
e_367_330_334_1438_1_0 - e_371_334_338_1395_1_0 = 0
e_368_331_335_325_0_156 - e_373_335_339_344_0_93 = 0
e_369_332_336_1159_1_0 - e_374_336_340_540_1_0 = 0
e_370_333_337_1395_0_0 - e_375_337_341_1426_0_0 = 0
e_371_334_338_1395_1_0 - e_372_338_330_0_0_0 = 0
e_373_335_339_344_0_93 - e_376_339_342_254_0_12 = 0
e_374_336_340_540_1_0 - e_377_340_343_542_1_4 - e_378_340_344_541_1_4 = 0
e_375_337_341_1426_0_0 - e_379_341_345_1402_0_0 = 0
e_376_339_342_254_0_12 - e_380_342_346_277_0_81 = 0
e_377_340_343_542_1_4 - e_381_343_347_566_1_8 = 0
e_378_340_344_541_1_4 - e_382_344_348_556_1_8 = 0
e_379_341_345_1402_0_0 - e_384_345_349_1222_0_21 = 0
e_380_342_346_277_0_81 - e_385_346_350_319_0_19 = 0
e_381_343_347_566_1_8 + e_383_348_347_0_0_0 - e_386_347_351_1436_1_0 = 0
e_382_344_348_556_1_8 - e_383_348_347_0_0_0 = 0
e_384_345_349_1222_0_21 - e_387_349_352_1223_0_0 = 0
e_385_346_350_319_0_19 - e_388_350_353_1437_0_0 = 0
e_386_347_351_1436_1_0 - e_389_351_354_1160_1_0 = 0
e_387_349_352_1223_0_0 - e_390_352_355_171_0_0 = 0
e_388_350_353_1437_0_0 - e_391_353_356_1184_0_0 = 0
e_389_351_354_1160_1_0 - e_393_354_357_1169_1_1 - e_394_354_358_1168_1_1 = 0
e_390_352_355_171_0_0 - e_395_355_359_173_0_82 - e_396_355_360_172_0_82 = 0
e_391_353_356_1184_0_0 - e_392_356_321_0_0_0 = 0
e_393_354_357_1169_1_1 + e_421_381_357_0_0_0 - e_397_357_361_1190_1_18 = 0
e_394_354_358_1168_1_1 - e_398_358_362_1182_1_4 = 0
e_395_355_359_173_0_82 + e_401_364_359_0_0_0 - e_399_359_363_205_0_48 = 0
e_396_355_360_172_0_82 - e_400_360_364_189_0_89 = 0
e_397_357_361_1190_1_18 - e_402_361_365_1396_1_0 = 0
e_398_358_362_1182_1_4 - e_404_362_366_1183_1_0 = 0
e_399_359_363_205_0_48 - e_405_363_367_1424_0_0 = 0
e_400_360_364_189_0_89 - e_401_364_359_0_0_0 = 0
e_402_361_365_1396_1_0 - e_403_365_325_0_0_0 = 0
e_404_362_366_1183_1_0 - e_406_366_368_240_1_0 = 0
e_405_363_367_1424_0_0 - e_407_367_369_1224_0_0 = 0
e_406_366_368_240_1_0 - e_408_368_370_242_1_123 = 0
e_407_367_369_1224_0_0 - e_409_369_371_1238_0_202 = 0
e_408_368_370_242_1_123 - e_410_370_372_325_1_156 = 0
e_409_369_371_1238_0_202 - e_411_371_373_1427_0_0 = 0
e_410_370_372_325_1_156 - e_412_372_374_344_1_93 = 0
e_411_371_373_1427_0_0 - e_413_373_375_1267_0_0 = 0
e_412_372_374_344_1_93 - e_414_374_376_254_1_12 = 0
e_413_373_375_1267_0_0 - e_415_375_377_1291_0_136 = 0
e_414_374_376_254_1_12 - e_417_376_378_277_1_81 = 0
e_415_375_377_1291_0_136 - e_416_377_18446744073709551615_0_0_0 = 0
e_417_376_378_277_1_81 - e_418_378_379_319_1_19 = 0
e_418_378_379_319_1_19 - e_419_379_380_1437_1_0 = 0
e_419_379_380_1437_1_0 - e_420_380_381_1184_1_0 = 0
e_420_380_381_1184_1_0 - e_421_381_357_0_0_0 = 0
+1 e_270_246_247_1405_0_0 -1 e_267_243_244_435_0_0 = 0
+1 e_112_104_106_1431_0_0 -1 e_105_99_100_602_0_0 = 0
+1 e_137_126_129_1431_1_0 -1 e_126_117_119_602_1_0 = 0
+1 e_162_146_150_1407_0_0 -1 e_127_118_120_645_0_0 = 0
+1 e_256_233_234_1410_0_0 -1 e_234_213_214_734_0_0 = 0
+1 e_272_248_249_1411_0_0 -1 e_259_236_237_763_0_0 = 0
+1 e_290_263_267_1412_0_0 -1 e_279_254_256_805_0_0 = 0
+1 e_326_292_296_1413_0_0 -1 e_317_283_287_822_0_0 = 0
+1 e_339_305_307_1414_0_0 -1 e_278_253_255_861_0_0 = 0
+1 e_9_9_10_1415_0_0 -1 e_6_6_7_898_0_0 = 0
+1 e_15_15_16_1416_0_0 -1 e_12_12_13_921_0_0 = 0
+1 e_40_38_39_1417_0_0 -1 e_18_18_19_936_0_0 = 0
+1 e_65_61_62_1418_0_0 -1 e_43_41_42_975_0_0 = 0
+1 e_71_67_68_1419_0_0 -1 e_68_64_65_990_0_0 = 0
+1 e_96_90_91_1420_0_0 -1 e_74_70_71_1021_0_0 = 0
+1 e_183_163_166_1421_0_0 -1 e_99_93_94_1038_0_0 = 0
+1 e_198_179_181_1434_0_0 -1 e_192_173_175_1067_0_0 = 0
+1 e_228_207_208_1422_0_0 -1 e_197_178_180_1115_0_0 = 0
+1 e_338_304_306_1423_0_0 -1 e_231_210_211_1138_0_0 = 0
+1 e_352_318_319_1436_0_0 -1 e_348_314_315_1159_0_0 = 0
+1 e_386_347_351_1436_1_0 -1 e_369_332_336_1159_1_0 = 0
+1 e_388_350_353_1437_0_0 -1 e_359_324_326_1183_0_0 = 0
+1 e_419_379_380_1437_1_0 -1 e_404_362_366_1183_1_0 = 0
+1 e_405_363_367_1424_0_0 -1 e_387_349_352_1223_0_0 = 0
+1 e_411_371_373_1427_0_0 -1 e_3_3_4_1266_0_0 = 0
+1 e_169_152_156_1428_0_0 -1 e_155_141_145_1311_0_0 = 0
+1 e_170_152_157_1428_1_0 -1 e_181_160_165_1311_1_0 = 0
+1 e_147_133_138_1403_0_0 -1 e_136_125_128_1316_0_0 = 0
+1 e_86_81_83_1429_0_0 -1 e_81_77_78_1326_0_0 = 0
+1 e_87_81_84_1429_1_0 -1 e_88_82_85_1326_1_0 = 0
+1 e_55_52_54_1429_2_0 -1 e_50_48_49_1326_2_0 = 0
+1 e_56_52_55_1429_3_0 -1 e_57_53_56_1326_3_0 = 0
+1 e_30_29_31_1429_4_0 -1 e_25_25_26_1326_4_0 = 0
+1 e_31_29_32_1429_5_0 -1 e_32_30_33_1326_5_0 = 0
+1 e_37_34_36_1404_0_0 -1 e_21_21_22_1331_0_0 = 0
+1 e_62_57_59_1404_1_0 -1 e_46_44_45_1331_1_0 = 0
+1 e_93_86_88_1404_2_0 -1 e_77_73_74_1331_2_0 = 0
+1 e_218_198_200_1430_0_0 -1 e_211_192_194_1340_0_0 = 0
+1 e_219_198_201_1430_1_0 -1 e_220_199_202_1340_1_0 = 0
+1 e_225_203_205_1406_0_0 -1 e_203_184_186_1345_0_0 = 0
+1 e_154_139_144_1432_0_0 -1 e_120_110_113_1354_0_0 = 0
+1 e_121_111_114_1408_0_0 -1 e_102_96_97_1359_0_0 = 0
+1 e_324_291_294_1433_0_0 -1 e_316_282_286_1368_0_0 = 0
+1 e_325_291_295_1433_1_0 -1 e_327_293_297_1368_1_0 = 0
+1 e_246_224_226_1433_2_0 -1 e_241_220_221_1368_2_0 = 0
+1 e_247_224_227_1433_3_0 -1 e_248_225_228_1368_3_0 = 0
+1 e_253_229_231_1409_0_0 -1 e_237_216_217_1373_0_0 = 0
+1 e_333_298_301_1409_1_0 -1 e_285_259_262_1373_1_0 = 0
+1 e_210_191_193_1435_0_0 -1 e_204_185_187_1382_0_0 = 0
+1 e_191_172_174_1425_0_0 -1 e_186_168_169_1387_0_0 = 0
+1 e_366_330_333_1438_0_0 -1 e_358_323_325_1396_0_0 = 0
+1 e_367_330_334_1438_1_0 -1 e_402_361_365_1396_1_0 = 0
+1 e_375_337_341_1426_0_0 -1 e_344_310_311_1401_0_0 = 0
-99 e_344_310_311_1401_0_0 +1 e_358_323_325_1396_0_0 +1 e_402_361_365_1396_1_0 >= 0
+100 e_344_310_311_1401_0_0 -1 e_358_323_325_1396_0_0 -1 e_402_361_365_1396_1_0 >= 0
+99 e_344_310_311_1401_0_0 -1 e_402_361_365_1396_1_0 >= 0
+101 e_358_323_325_1396_0_0 -1 e_402_361_365_1396_1_0 >= 0
+1 e_204_185_187_1382_0_0 >= 0
+1 e_186_168_169_1387_0_0 -1 e_204_185_187_1382_0_0 >= 0
-47 e_237_216_217_1373_0_0 +1 e_241_220_221_1368_2_0 +1 e_248_225_228_1368_3_0 >= 0
+48 e_237_216_217_1373_0_0 -1 e_241_220_221_1368_2_0 -1 e_248_225_228_1368_3_0 >= 0
+47 e_237_216_217_1373_0_0 -1 e_248_225_228_1368_3_0 >= 0
+49 e_241_220_221_1368_2_0 -1 e_248_225_228_1368_3_0 >= 0
-47 e_285_259_262_1373_1_0 +1 e_316_282_286_1368_0_0 +1 e_327_293_297_1368_1_0 >= 0
+48 e_285_259_262_1373_1_0 -1 e_316_282_286_1368_0_0 -1 e_327_293_297_1368_1_0 >= 0
+47 e_285_259_262_1373_1_0 -1 e_327_293_297_1368_1_0 >= 0
+49 e_316_282_286_1368_0_0 -1 e_327_293_297_1368_1_0 >= 0
+1 e_120_110_113_1354_0_0 >= 0
+1 e_102_96_97_1359_0_0 -1 e_120_110_113_1354_0_0 >= 0
-1 e_203_184_186_1345_0_0 +1 e_211_192_194_1340_0_0 +1 e_220_199_202_1340_1_0 >= 0
+2 e_203_184_186_1345_0_0 -1 e_211_192_194_1340_0_0 -1 e_220_199_202_1340_1_0 >= 0
+1 e_203_184_186_1345_0_0 -1 e_220_199_202_1340_1_0 >= 0
+3 e_211_192_194_1340_0_0 -1 e_220_199_202_1340_1_0 >= 0
+1 e_25_25_26_1326_4_0 +1 e_32_30_33_1326_5_0 >= 0
+31 e_21_21_22_1331_0_0 -1 e_25_25_26_1326_4_0 -1 e_32_30_33_1326_5_0 >= 0
+30 e_21_21_22_1331_0_0 -1 e_32_30_33_1326_5_0 >= 0
+32 e_25_25_26_1326_4_0 -1 e_32_30_33_1326_5_0 >= 0
+1 e_50_48_49_1326_2_0 +1 e_57_53_56_1326_3_0 >= 0
+31 e_46_44_45_1331_1_0 -1 e_50_48_49_1326_2_0 -1 e_57_53_56_1326_3_0 >= 0
+30 e_46_44_45_1331_1_0 -1 e_57_53_56_1326_3_0 >= 0
+32 e_50_48_49_1326_2_0 -1 e_57_53_56_1326_3_0 >= 0
+1 e_81_77_78_1326_0_0 +1 e_88_82_85_1326_1_0 >= 0
+31 e_77_73_74_1331_2_0 -1 e_81_77_78_1326_0_0 -1 e_88_82_85_1326_1_0 >= 0
+30 e_77_73_74_1331_2_0 -1 e_88_82_85_1326_1_0 >= 0
+32 e_81_77_78_1326_0_0 -1 e_88_82_85_1326_1_0 >= 0
+1 e_155_141_145_1311_0_0 +1 e_181_160_165_1311_1_0 >= 0
+31 e_136_125_128_1316_0_0 -1 e_155_141_145_1311_0_0 -1 e_181_160_165_1311_1_0 >= 0
+30 e_136_125_128_1316_0_0 -1 e_181_160_165_1311_1_0 >= 0
+32 e_155_141_145_1311_0_0 -1 e_181_160_165_1311_1_0 >= 0
general
e_0_0_0_0_0_0
e_1_1_2_1261_0_0
e_2_2_3_1265_0_207
e_3_3_4_1266_0_0
e_4_4_5_893_0_0
e_5_5_6_897_0_296
e_6_6_7_898_0_0
e_7_7_8_139_0_0
e_8_8_9_140_0_254
e_9_9_10_1415_0_0
e_10_10_11_899_0_0
e_11_11_12_920_0_18
e_12_12_13_921_0_0
e_13_13_14_139_1_0
e_14_14_15_140_1_41
e_15_15_16_1416_0_0
e_16_16_17_922_0_0
e_17_17_18_935_0_221
e_18_18_19_936_0_0
e_19_19_20_102_0_0
e_20_20_21_103_0_105
e_21_21_22_1331_0_0
e_22_22_23_1327_4_0
e_23_23_24_120_4_98
e_24_24_25_111_4_101
e_25_25_26_1326_4_0
e_26_26_27_1327_5_0
e_27_27_28_120_5_107
e_28_27_29_119_5_104
e_29_28_30_111_5_104
e_30_29_31_1429_4_0
e_31_29_32_1429_5_0
e_32_30_33_1326_5_0
e_34_31_34_1325_4_0
e_35_32_35_1325_5_0
e_33_33_26_0_0_0
e_37_34_36_1404_0_0
e_36_35_29_0_0_0
e_38_36_37_1332_0_0
e_39_37_38_132_0_0
e_40_38_39_1417_0_0
e_41_39_40_937_0_0
e_42_40_41_974_0_89
e_43_41_42_975_0_0
e_44_42_43_102_1_0
e_45_43_44_103_1_17
e_46_44_45_1331_1_0
e_47_45_46_1327_2_0
e_48_46_47_120_2_104
e_49_47_48_111_2_101
e_50_48_49_1326_2_0
e_51_49_50_1327_3_0
e_52_50_51_120_3_107
e_53_50_52_119_3_105
e_54_51_53_111_3_104
e_55_52_54_1429_2_0
e_56_52_55_1429_3_0
e_57_53_56_1326_3_0
e_59_54_57_1325_2_0
e_60_55_58_1325_3_0
e_58_56_49_0_0_0
e_62_57_59_1404_1_0
e_61_58_52_0_0_0
e_63_59_60_1332_1_0
e_64_60_61_132_1_0
e_65_61_62_1418_0_0
e_66_62_63_976_0_0
e_67_63_64_989_0_152
e_68_64_65_990_0_0
e_69_65_66_218_0_0
e_70_66_67_219_0_159
e_71_67_68_1419_0_0
e_72_68_69_991_0_0
e_73_69_70_1020_0_109
e_74_70_71_1021_0_0
e_75_71_72_102_2_0
e_76_72_73_103_2_14
e_77_73_74_1331_2_0
e_78_74_75_1327_0_0
e_79_75_76_120_0_106
e_80_76_77_111_0_101
e_81_77_78_1326_0_0
e_82_78_79_1327_1_0
e_83_79_80_120_1_107
e_84_79_81_119_1_105
e_85_80_82_111_1_104
e_86_81_83_1429_0_0
e_87_81_84_1429_1_0
e_88_82_85_1326_1_0
e_90_83_86_1325_0_0
e_91_84_87_1325_1_0
e_89_85_78_0_0_0
e_93_86_88_1404_2_0
e_92_87_81_0_0_0
e_94_88_89_1332_2_0
e_95_89_90_132_2_0
e_96_90_91_1420_0_0
e_97_91_92_1022_0_0
e_98_92_93_1037_0_21
e_99_93_94_1038_0_0
e_100_94_95_581_0_0
e_101_95_96_582_0_137
e_102_96_97_1359_0_0
e_103_97_98_1355_0_0
e_104_98_99_601_0_188
e_105_99_100_602_0_0
e_106_100_101_540_2_0
e_107_101_102_542_2_86
e_108_101_103_541_2_86
e_109_102_104_566_2_83
e_110_103_105_556_2_83
e_112_104_106_1431_0_0
e_111_105_104_0_0_0
e_113_106_107_603_0_0
e_114_107_108_616_0_2
e_115_107_109_615_0_2
e_116_108_110_635_0_69
e_117_108_111_634_0_69
e_118_109_112_624_0_73
e_120_110_113_1354_0_0
e_121_111_114_1408_0_0
e_119_112_108_0_0_0
e_122_113_115_1355_1_0
e_123_114_116_1360_0_0
e_124_115_117_601_1_13
e_125_116_118_644_0_5
e_126_117_119_602_1_0
e_127_118_120_645_0_0
e_128_119_121_540_3_0
e_129_120_122_48_0_0
e_130_121_123_542_3_4
e_131_121_124_541_3_4
e_132_122_125_49_0_128
e_133_123_126_566_3_8
e_134_124_127_556_3_8
e_136_125_128_1316_0_0
e_137_126_129_1431_1_0
e_135_127_126_0_0_0
e_138_128_130_1312_0_0
e_139_129_131_603_1_0
e_140_130_132_77_0_97
e_141_130_133_76_0_97
e_142_131_134_616_1_2
e_143_131_135_615_1_2
e_144_132_136_58_0_0
e_145_132_137_57_0_0
e_147_133_138_1403_0_0
e_148_134_139_634_1_4
e_149_135_140_624_1_8
e_151_136_141_68_0_134
e_146_137_133_0_0_0
e_152_138_142_1318_0_0
e_153_138_143_1317_0_0
e_154_139_144_1432_0_0
e_150_140_134_0_0_0
e_155_141_145_1311_0_0
e_156_142_146_62_0_3
e_157_143_147_93_0_3
e_159_144_148_1353_0_0
e_161_145_149_1312_1_0
e_162_146_150_1407_0_0
e_158_147_146_0_0_0
e_160_148_111_0_0_0
e_163_149_151_77_1_143
e_164_149_152_76_1_143
e_165_150_153_646_0_0
e_166_151_154_58_1_0
e_167_151_155_57_1_0
e_169_152_156_1428_0_0
e_170_152_157_1428_1_0
e_171_153_158_655_0_89
e_172_153_159_654_0_89
e_173_154_160_68_1_146
e_168_155_152_0_0_0
e_174_156_161_1310_0_0
e_176_157_162_1310_1_0
e_178_158_163_675_0_203
e_179_159_164_663_0_87
e_181_160_165_1311_1_0
e_175_161_133_0_0_0
e_177_162_152_0_0_0
e_183_163_166_1421_0_0
e_180_164_158_0_0_0
e_182_165_145_0_0_0
e_184_166_167_1039_0_0
e_185_167_168_1053_0_82
e_186_168_169_1387_0_0
e_187_169_170_1383_0_0
e_188_170_171_1093_0_143
e_189_170_172_1092_0_143
e_190_171_173_1066_0_5
e_191_172_174_1425_0_0
e_192_173_175_1067_0_0
e_193_174_176_1388_0_0
e_194_175_177_367_0_0
e_195_176_178_1114_0_89
e_196_177_179_368_0_158
e_197_178_180_1115_0_0
e_198_179_181_1434_0_0
e_199_180_182_457_0_0
e_200_181_183_1068_0_0
e_201_182_184_458_0_193
e_202_183_185_1076_0_34
e_203_184_186_1345_0_0
e_204_185_187_1382_0_0
e_205_186_188_1341_0_0
e_206_187_189_1383_1_0
e_207_188_190_497_0_87
e_208_189_191_1092_1_22
e_209_190_192_488_0_18
e_210_191_193_1435_0_0
e_211_192_194_1340_0_0
e_212_193_195_1381_0_0
e_214_194_196_1341_1_0
e_213_195_172_0_0_0
e_215_196_197_497_1_1
e_216_196_198_496_1_1
e_217_197_199_488_1_17
e_218_198_200_1430_0_0
e_219_198_201_1430_1_0
e_220_199_202_1340_1_0
e_222_200_203_1339_0_0
e_223_201_204_1339_1_0
e_221_202_194_0_0_0
e_225_203_205_1406_0_0
e_224_204_198_0_0_0
e_226_205_206_1346_0_0
e_227_206_207_505_0_295
e_228_207_208_1422_0_0
e_229_208_209_1116_0_0
e_230_209_210_1137_0_103
e_231_210_211_1138_0_0
e_232_211_212_729_0_0
e_233_212_213_733_0_274
e_234_213_214_734_0_0
e_235_214_215_690_0_0
e_236_215_216_691_0_84
e_237_216_217_1373_0_0
e_238_217_218_1369_2_0
e_239_218_219_710_2_1
e_240_219_220_699_2_131
e_241_220_221_1368_2_0
e_242_221_222_1369_3_0
e_243_222_223_710_3_1
e_244_222_224_709_3_1
e_245_223_225_699_3_155
e_246_224_226_1433_2_0
e_247_224_227_1433_3_0
e_248_225_228_1368_3_0
e_250_226_229_1367_2_0
e_251_227_230_1367_3_0
e_249_228_221_0_0_0
e_253_229_231_1409_0_0
e_252_230_224_0_0_0
e_254_231_232_1374_0_0
e_255_232_233_714_0_170
e_256_233_234_1410_0_0
e_257_234_235_735_0_0
e_258_235_236_762_0_352
e_259_236_237_763_0_0
e_260_237_238_389_0_0
e_261_238_239_391_0_166
e_262_238_240_390_0_166
e_263_239_241_417_0_202
e_264_240_242_403_0_205
e_266_241_243_434_0_169
e_265_242_241_0_0_0
e_267_243_244_435_0_0
e_268_244_245_367_3_0
e_269_245_246_368_3_249
e_270_246_247_1405_0_0
e_271_247_248_436_0_0
e_272_248_249_1411_0_0
e_273_249_250_764_0_0
e_274_250_251_785_0_154
e_275_250_252_784_0_154
e_276_251_253_860_0_86
e_277_252_254_804_0_88
e_278_253_255_861_0_0
e_279_254_256_805_0_0
e_280_255_257_690_1_0
e_281_256_258_240_2_0
e_282_257_259_691_1_3
e_283_258_260_242_2_148
e_284_258_261_241_2_129
e_285_259_262_1373_1_0
e_286_260_263_326_2_204
e_287_260_264_325_2_204
e_288_261_265_250_2_103
e_289_262_266_1369_0_0
e_290_263_267_1412_0_0
e_291_264_268_344_2_93
e_292_264_269_345_2_93
e_293_264_270_346_2_93
e_294_264_271_347_2_93
e_295_264_272_348_2_93
e_297_265_273_289_2_150
e_298_266_274_710_0_1
e_299_267_275_806_0_0
e_300_268_276_254_2_12
e_301_269_277_263_2_111
e_302_269_278_262_2_111
e_296_270_265_0_0_0
e_304_271_279_303_2_156
e_306_272_280_311_2_12
e_308_273_281_319_2_168
e_310_274_282_699_0_141
e_311_275_283_821_0_312
e_312_276_284_277_2_81
e_314_277_285_283_2_4
e_303_278_276_0_0_0
e_305_279_263_0_0_0
e_307_280_273_0_0_0
e_309_281_263_0_0_0
e_316_282_286_1368_0_0
e_317_283_287_822_0_0
e_313_284_273_0_0_0
e_315_285_273_0_0_0
e_318_286_288_1369_1_0
e_319_287_289_367_2_0
e_320_288_290_710_1_1
e_321_288_291_709_1_1
e_322_289_292_368_2_117
e_323_290_293_699_1_168
e_324_291_294_1433_0_0
e_325_291_295_1433_1_0
e_326_292_296_1413_0_0
e_327_293_297_1368_1_0
e_329_294_298_1367_0_0
e_330_295_299_1367_1_0
e_332_296_300_823_0_0
e_328_297_286_0_0_0
e_333_298_301_1409_1_0
e_331_299_291_0_0_0
e_334_300_302_853_0_0
e_335_301_303_1374_1_0
e_336_302_304_870_0_160
e_337_303_305_714_1_157
e_338_304_306_1423_0_0
e_339_305_307_1414_0_0
e_340_306_308_1139_0_0
e_341_307_309_862_0_0
e_343_308_310_1151_0_0
e_342_309_302_0_0_0
e_344_310_311_1401_0_0
e_345_311_312_1397_0_0
e_346_312_313_1205_0_131
e_347_313_314_1158_0_21
e_348_314_315_1159_0_0
e_349_315_316_540_0_0
e_350_316_317_541_0_4
e_351_317_318_556_0_8
e_352_318_319_1436_0_0
e_353_319_320_1160_0_0
e_354_320_321_1169_0_68
e_355_320_322_1168_0_68
e_356_321_323_1190_0_18
e_357_322_324_1182_0_4
e_358_323_325_1396_0_0
e_359_324_326_1183_0_0
e_360_325_327_1397_1_0
e_361_326_328_240_0_0
e_362_327_329_1205_1_16
e_363_327_330_1204_1_16
e_364_328_331_242_0_123
e_365_329_332_1158_1_16
e_366_330_333_1438_0_0
e_367_330_334_1438_1_0
e_368_331_335_325_0_156
e_369_332_336_1159_1_0
e_370_333_337_1395_0_0
e_371_334_338_1395_1_0
e_373_335_339_344_0_93
e_374_336_340_540_1_0
e_375_337_341_1426_0_0
e_372_338_330_0_0_0
e_376_339_342_254_0_12
e_377_340_343_542_1_4
e_378_340_344_541_1_4
e_379_341_345_1402_0_0
e_380_342_346_277_0_81
e_381_343_347_566_1_8
e_382_344_348_556_1_8
e_384_345_349_1222_0_21
e_385_346_350_319_0_19
e_386_347_351_1436_1_0
e_383_348_347_0_0_0
e_387_349_352_1223_0_0
e_388_350_353_1437_0_0
e_389_351_354_1160_1_0
e_390_352_355_171_0_0
e_391_353_356_1184_0_0
e_393_354_357_1169_1_1
e_394_354_358_1168_1_1
e_395_355_359_173_0_82
e_396_355_360_172_0_82
e_392_356_321_0_0_0
e_397_357_361_1190_1_18
e_398_358_362_1182_1_4
e_399_359_363_205_0_48
e_400_360_364_189_0_89
e_402_361_365_1396_1_0
e_404_362_366_1183_1_0
e_405_363_367_1424_0_0
e_401_364_359_0_0_0
e_403_365_325_0_0_0
e_406_366_368_240_1_0
e_407_367_369_1224_0_0
e_408_368_370_242_1_123
e_409_369_371_1238_0_202
e_410_370_372_325_1_156
e_411_371_373_1427_0_0
e_412_372_374_344_1_93
e_413_373_375_1267_0_0
e_414_374_376_254_1_12
e_415_375_377_1291_0_136
e_417_376_378_277_1_81
e_416_377_18446744073709551615_0_0_0
e_418_378_379_319_1_19
e_419_379_380_1437_1_0
e_420_380_381_1184_1_0
e_421_381_357_0_0_0
end
